n = 20;
m = 5;
p = [5, 6, 3, 2, 4];
ext = [0.618, 0.392, 0.743, 0.461, 0.032];
ce = [10.791, 12.431, 9.742, 11.492, 8.979];
c = array2d(1..5, 1..5, [0.0, 3.197, 4.453, 2.281, 4.791, 3.333, 0.0, 5.132, 3.891, 3.911, 3.641, 2.791, 0.0, 3.995, 2.141, 4.635, 1.683, 3.951, 0.0, 3.519, 2.927, 3.654, 2.535, 5.737, 0.0]);
ct = 152.81;
maxM = 25;
